<number of tasks>
20

<cycle time>
1000

<order strength>
0,521


<task times>
1 441
2 457
3 383
4 843
5 555
6 337
7 509
8 511
9 494
10 486
11 380
12 355
13 497
14 558
15 515
16 611
17 520
18 557
19 793
20 393

<precedence relations>
1,2
1,3
1,4
1,5
2,6
3,7
4,8
5,8
6,9
7,10
8,10
8,11
8,12
9,14
10,13
10,15
10,16
11,15
11,16
12,15
12,16
13,17
14,18
15,19
15,20
16,18

<end>
